20
587 233 220
114 54 20
92 87 50
114 43 26
93 69 42
80 79 64
99 80 29
60 54 47
54 53 32
113 75 68
67 66 49
65 30 21
110 63 29
75 60 27
95 71 40
92 74 67
55 43 38
105 32 31
90 81 46
90 60 38
77 42 22
thpack7_64